NumGames = 8;
NumReferees = 26;
NumFields = 5;
game_id = [3512, 3513, 3516, 3517, 3518, 3526, 3531, 3588];
game_start = [900, 1110, 720, 720, 630, 540, 540, 960];
game_end = [1020, 1230, 840, 840, 750, 660, 660, 1080];
difficulty = [3, 3, 2, 2, 1, 1, 1, 1];
game_field = [1, 1, 1, 2, 3, 3, 4, 5];
referee_id = [1206, 3256, 3260, 3262, 3263, 3266, 3475, 3517, 3526, 3533, 3534, 3539, 3614, 3640, 7484, 7486, 7490, 7496, 7498, 7503, 7506, 7533, 7550, 7552, 7562, 7565];
main_exp = [277, 45, 147, 105, 135, 11, 25, 34, 57, 31, 4, 12, 6, 1, 1, 14, 2, 0, 2, 18, 1, 6, 2, 1, 0, 14];
assist_exp = [151, 51, 99, 79, 101, 2, 27, 14, 106, 43, 23, 97, 44, 32, 17, 66, 12, 15, 24, 59, 42, 24, 15, 8, 0, 0];
available_slots = array3d(1..NumReferees, 1..3, 1..2,[
  720,1140, 0,0, 0,0,
  0,1440, 0,0, 0,0,
  0,1440, 0,0, 0,0,
  900,1380, 0,0, 0,0,
  0,1440, 0,0, 0,0,
  720,900, 0,0, 0,0,
  540,660, 0,0, 0,0,
  720,1080, 0,0, 0,0,
  0,1440, 0,0, 0,0,
  0,810, 0,0, 0,0,
  540,660, 0,0, 0,0,
  60,780, 0,0, 0,0,
  900,1440, 0,0, 0,0,
  840,1440, 0,0, 0,0,
  0,1440, 0,0, 0,0,
  540,690, 0,0, 0,0,
  1080,1260, 0,0, 0,0,
  0,1440, 0,0, 0,0,
  0,1080, 0,0, 0,0,
  0,1440, 0,0, 0,0,
  0,1440, 0,0, 0,0,
  0,1200, 0,0, 0,0,
  840,1080, 0,0, 0,0,
  480,840, 0,0, 0,0,
  720,1200, 0,0, 0,0,
  0,1440, 0,0, 0,0,
]);